name="p38";
nr_vertices=87;
nr_edges=537;
neighborhoods=[{1,2,3,12,25,62,70},{0,2,3,13,19,34,56,63,72,78},{0,1,3,6,27,42,79},{0,1,2,9,17,22,37,45,58,67,81},{5,6,7,8,9,10,11,18,24,39,53,60,69,77},{4,6,7,8,9,10,11,26,33,41,48,55,71},{2,4,5,7,8,9,10,11,27,42,79},{4,5,6,8,9,10,11,65,80,84},{4,5,6,7,9,10,11,15,21,29,36,43,50,66,74,85},{3,4,5,6,7,8,10,11,17,22,37,45,58,67,81},{4,5,6,7,8,9,11,23,31,38,52,59,68,75,86},{4,5,6,7,8,9,10,32,46,76},{0,13,14,15,16,17,25,62,70},{1,12,14,15,16,17,19,34,56,63,72,78},{12,13,15,16,17,20,28,35,49,64,73,83},{8,12,13,14,16,17,21,29,36,43,50,66,74,85},{12,13,14,15,17,30,44,51,57},{3,9,12,13,14,15,16,22,37,45,58,67,81},{4,19,20,21,22,23,24,39,53,60,69,77},{1,13,18,20,21,22,23,34,56,63,72,78},{14,18,19,21,22,23,28,35,49,64,73,83},{8,15,18,19,20,22,23,29,36,43,50,66,74,85},{3,9,17,18,19,20,21,23,37,45,58,67,81},{10,18,19,20,21,22,31,38,52,59,68,75,86},{4,18,25,26,27,28,29,30,31,32,39,53,60,69,77},{0,12,24,26,27,28,29,30,31,32,62,70},{5,24,25,27,28,29,30,31,32,33,41,48,55,71},{2,6,24,25,26,28,29,30,31,32,42,79},{14,20,24,25,26,27,29,30,31,32,35,49,64,73,83},{8,15,21,24,25,26,27,28,30,31,32,36,43,50,66,74,85},{16,24,25,26,27,28,29,31,32,44,51,57},{10,23,24,25,26,27,28,29,30,32,38,52,59,68,75,86},{11,24,25,26,27,28,29,30,31,46,76},{5,26,34,35,36,37,38,41,48,55,71},{1,13,19,33,35,36,37,38,56,63,72,78},{14,20,28,33,34,36,37,38,49,64,73,83},{8,15,21,29,33,34,35,37,38,43,50,66,74,85},{3,9,17,22,33,34,35,36,38,45,58,67,81},{10,23,31,33,34,35,36,37,52,59,68,75,86},{4,18,24,40,41,42,43,44,45,46,53,60,69,77},{39,41,42,43,44,45,46,47,54,61,82},{5,26,33,39,40,42,43,44,45,46,48,55,71},{2,6,27,39,40,41,43,44,45,46,79},{8,15,21,29,36,39,40,41,42,44,45,46,50,66,74,85},{16,30,39,40,41,42,43,45,46,51,57},{3,9,17,22,37,39,40,41,42,43,44,46,58,67,81},{11,32,39,40,41,42,43,44,45,76},{40,48,49,50,51,52,54,61,82},{5,26,33,41,47,49,50,51,52,55,71},{14,20,28,35,47,48,50,51,52,64,73,83},{8,15,21,29,36,43,47,48,49,51,52,66,74,85},{16,30,44,47,48,49,50,52,57},{10,23,31,38,47,48,49,50,51,59,68,75,86},{4,18,24,39,54,55,56,57,58,59,60,69,77},{40,47,53,55,56,57,58,59,61,82},{5,26,33,41,48,53,54,56,57,58,59,71},{1,13,19,34,53,54,55,57,58,59,63,72,78},{16,30,44,51,53,54,55,56,58,59},{3,9,17,22,37,45,53,54,55,56,57,59,67,81},{10,23,31,38,52,53,54,55,56,57,58,68,75,86},{4,18,24,39,53,61,62,63,64,65,66,67,68,69,77},{40,47,54,60,62,63,64,65,66,67,68,82},{0,12,25,60,61,63,64,65,66,67,68,70},{1,13,19,34,56,60,61,62,64,65,66,67,68,72,78},{14,20,28,35,49,60,61,62,63,65,66,67,68,73,83},{7,60,61,62,63,64,66,67,68,80,84},{8,15,21,29,36,43,50,60,61,62,63,64,65,67,68,74,85},{3,9,17,22,37,45,58,60,61,62,63,64,65,66,68,81},{10,23,31,38,52,59,60,61,62,63,64,65,66,67,75,86},{4,18,24,39,53,60,70,71,72,73,74,75,76,77},{0,12,25,62,69,71,72,73,74,75,76},{5,26,33,41,48,55,69,70,72,73,74,75,76},{1,13,19,34,56,63,69,70,71,73,74,75,76,78},{14,20,28,35,49,64,69,70,71,72,74,75,76,83},{8,15,21,29,36,43,50,66,69,70,71,72,73,75,76,85},{10,23,31,38,52,59,68,69,70,71,72,73,74,76,86},{11,32,46,69,70,71,72,73,74,75},{4,18,24,39,53,60,69,78,79,80,81},{1,13,19,34,56,63,72,77,79,80,81},{2,6,27,42,77,78,80,81},{7,65,77,78,79,81,84},{3,9,17,22,37,45,58,67,77,78,79,80},{40,47,54,61,83,84,85,86},{14,20,28,35,49,64,73,82,84,85,86},{7,65,80,82,83,85,86},{8,15,21,29,36,43,50,66,74,82,83,84,86},{10,23,31,38,52,59,68,75,82,83,84,85}];
weights=[100,80,100,80,340,700,350,100,180,150,70,180,80,250,330,160,150,90,100,30,150,30,60,80,200,250,80,60,150,80,20,40,60,100,60,230,80,70,80,120,150,50,130,160,50,404,10,200,50,160,70,200,150,180,280,60,40,100,30,80,50,150,250,120,30,150,40,80,80,40,70,30,50,110,60,100,100,210,10,90,110,320,200,200,10,10,200];
